c colouring generated by benchmark framework
p edge 47 236
v 1 1
v 2 0
v 3 1
v 4 2
v 5 0
v 6 1
v 7 3
v 8 1
v 9 3
v 10 3
v 11 0
v 12 4
v 13 2
v 14 2
v 15 2
v 16 4
v 17 4
v 18 3
v 19 5
v 20 3
v 21 3
v 22 2
v 23 0
v 24 1
v 25 3
v 26 1
v 27 2
v 28 4
v 29 1
v 30 3
v 31 1
v 32 3
v 33 3
v 34 2
v 35 1
v 36 2
v 37 1
v 38 2
v 39 4
v 40 1
v 41 2
v 42 1
v 43 2
v 44 3
v 45 2
v 46 1
v 47 0
